data;

set A := 443803888 487529582 901401957 225628437 726461051 353606549 871682752 934976372 100568552 471285277 799415058 809357296 725812515 375352435 180898127 557137829 512639926 36104819 354975786 120253508 927121167 760479151 214775388 822803532 431576254 977736616 989177563 106274130 106364083 247089682 59740451 572233786 986501508 991480084 508695408 297532794 332536484 134049157 963398401 943380829 450479789 950798128 804906070 590573118 762630551 53010192 605653363 324341960 596234494 754193812 73712666 822980157 697133663 329975516 45302292 736175787 141499738 373294329 561517929 782346551 518381553 456673840 37956258 766612566 187653319 115501879 342957837 490391567 142729570 969084278 955553017 511170106 581633129 732849479 690443253 757636291 971293159 898986038 663090965 112456679 733951877 299976002 562895661 670384244 950086867 823428889 569358611 348080141 470538111 326613087 244728288 325164900 338281371 82108391 407426863 477319294;
param T := 24000000000;

end;
